8933
1386
5756
1472
8176
5769
3613
6843
444
1653
9046
6498
9445
2186
5447
1191
1103
5572
416
1608
4980
935
7017
8202
2636
2497
3241
7867
6186
2266
9902
781
5162
6383
526
1759
2012
5037
8751
9862
9586
5828
6268
8156
5879
1893
9378
4978
6631
9767
